Minimize
  + 308.9926461407128 Constant
Subject To
 R100: (basket-rotation-(0,_0)) = 0.7853981633974483
 R106: (basket_near_target-rotation-(0,_0)) = 2.094395102393195
 R1169: (basket_near_target-rotation-(0,_0)) - (basket-rotation-(0,_0))
   <= 0.001
Bounds
 (basket_near_target-rotation-(0,_0)) free
 (basket-rotation-(0,_0)) free
 Constant = 1
End
